# Solution for model F-JSSP-SDST
# Objective value = 1599
B0(11) 1
B1(10) 0
B2(12) 1
B3(9) 1
B4(10) 0
B5(12) 0
B6(10) 1
B7(10) 0
B8(11) 1
B9(10) 1
B10(11) 0
B11(11) 1
B12(11) 1
B13(10) 0
B14(10) 1
B15(11) 0
B16(11) 1
B17(11) 1
B18(10) 1
B19(10) 0
B20(0) 0
B21(0) 0
B22(0) 0
B23(2) 0
B24(0) 0
B25(0) 0
B26(2) 0
B27(0) 0
B28(0) 0
B29(2) 0
B30(0) 0
B31(0) 0
B32(0) 0
B33(0) 0
B34(0) 0
B35(0) 0
B36(2) 1
B37(0) 0
B38(2) 1
B39(0) 0
B40(2) 0
B41(2) 1
B42(0) 0
B43(2) 0
B44(0) 0
B45(0) 0
B46(0) 0
B47(0) 0
B48(0) 0
B49(2) 0
B50(0) 0
B51(0) 0
B52(4) 0
B53(0) 0
B54(2) 1
B55(2) 1
B56(0) 0
B57(0) 0
B58(0) 0
B59(0) 0
B60(0) 0
B61(0) 0
B62(2) 0
B63(2) 0
B64(0) 0
B65(2) 0
B66(0) 0
B67(2) 0
B68(0) 0
B69(0) 0
B70(0) 0
B71(0) 0
B72(0) 0
B73(0) 0
B74(2) 1
B75(2) 1
B76(0) 0
B77(2) 1
B78(0) 0
B79(2) 0
B80(0) 0
B81(0) 0
B82(0) 0
B83(0) 0
B84(0) 0
B85(0) 0
B86(0) 0
B87(0) 0
B88(2) 0
B89(0) 0
B90(2) 1
B91(0) 0
B92(0) 0
B93(0) 0
B94(0) 0
B95(0) 0
B96(0) 0
B97(0) 0
B98(0) 0
B99(0) 0
B100(0) 0
B101(4) 1
B102(0) 0
B103(0) 0
B104(0) 0
B105(0) 0
B106(0) 0
B107(0) 0
B108(0) 0
B109(0) 0
B110(0) 0
B111(0) 0
B112(0) 0
B113(0) 0
B114(0) 0
B115(2) 1
B116(0) 0
B117(0) 0
B118(0) 0
B119(0) 0
B120(0) 0
B121(0) 0
B122(0) 0
B123(0) 0
B124(0) 0
B125(0) 0
B126(2) 1
B127(2) 1
B128(0) 0
B129(0) 0
B130(0) 0
B131(0) 0
B132(0) 0
B133(0) 0
B134(0) 0
B135(0) 0
B136(0) 0
B137(0) 0
B138(0) 0
B139(0) 0
B140(0) 0
B141(0) 0
B142(0) 0
B143(0) 0
B144(0) 0
B145(0) 0
B146(0) 0
B147(0) 0
B148(0) 0
B149(0) 0
B150(0) 0
B151(0) 0
B152(0) 0
B153(0) 0
B154(0) 0
B155(0) 0
B156(0) 0
B157(0) 0
B158(0) 0
B159(0) 0
B160(0) 0
B161(0) 0
B162(0) 0
B163(0) 0
I164(12) 0
I165(12) 0
I166(14) 264
I167(12) 396
I168(14) 0
I169(13) 0
I170(11) 0
I171(12) 0
I172(14) 185
I173(13) 251
I174(12) 0
I175(12) 77
I176(13) 164
I177(13) 0
I178(13) 441
I179(12) 0
I180(12) 0
I181(13) 65
I182(13) 238
I183(13) 0
I184(1) 1599
B185(2) 1
B186(2) 0
B187(2) 1
B188(4) 1
B189(4) 0
B190(2) 0
B191(2) 1
B192(2) 0
B193(2) 1
B194(4) 1
B195(2) 0
B196(2) 1
B197(2) 1
B198(4) 0
B199(4) 1
B200(2) 0
B201(2) 1
B202(2) 1
B203(4) 1
B204(4) 0
